
Gurobi 9.5.1 (linux64) logging started Wed Mar  9 18:05:37 2022

Set parameter LogFile to value "../results/logs/log_2022_03_09_17_57.csv_11_55.log"
Set parameter Method to value 3
Gurobi Optimizer version 9.5.1 build v9.5.1rc2 (linux64)
Thread count: 8 physical cores, 8 logical processors, using up to 8 threads
Optimize a model with 79 rows, 9882 columns and 6345 nonzeros
Model fingerprint: 0x1a0ab217
Variable types: 4941 continuous, 4941 integer (4941 binary)
Coefficient statistics:
  Matrix range     [1e+00, 1e+01]
  Objective range  [1e+00, 1e+00]
  Bounds range     [1e+00, 1e+00]
  RHS range        [1e+00, 6e+01]
Found heuristic solution: objective -0.0000000
Presolve removed 66 rows and 9861 columns
Presolve time: 0.00s
Presolved: 13 rows, 21 columns, 65 nonzeros
Extracted 10 lazy constraints
Variable types: 8 continuous, 13 integer (12 binary)

Root relaxation: objective 1.800000e+01, 2 iterations, 0.00 seconds (0.00 work units)

    Nodes    |    Current Node    |     Objective Bounds      |     Work
 Expl Unexpl |  Obj  Depth IntInf | Incumbent    BestBd   Gap | It/Node Time

     0     0   13.45455    0    3   -0.00000   13.45455      -     -    0s
H    0     0                      11.0000000   13.45455  22.3%     -    0s
H    0     0                      12.0000000   13.45455  12.1%     -    0s
H    0     0                      13.0000000   13.45455  3.50%     -    0s

Cutting planes:
  MIR: 1
  Relax-and-lift: 1
  Lazy constraints: 9

Explored 1 nodes (14 simplex iterations) in 0.01 seconds (0.00 work units)
Thread count was 8 (of 8 available processors)

Solution count 4: 13 12 11 -0 

Optimal solution found (tolerance 1.00e-04)
Best objective 1.300000000000e+01, best bound 1.300000000000e+01, gap 0.0000%
